24
15
0 21 1 11 17 7 8 20 16 10 4 14 3 18 9 23 13 22 5 15 2
23 20 3 16 17
9 8 7 1
15 20 8 14
13 19 7 22 4 16 1 15
0 5 6 1 2 12 22 13 20 14 23
20 22 3 7 23 11 2 10 8 1 4 13 15 19 21 6 9 12 16
4 23 7 12 2 14 15 3 10 22
15 6 21 23 10 11 20 12 5 2
20 14 5 13 16 7 0 19 3 11 22
13 21 15 14 4 8 22 23 1 7 16 9 0 6 17 20
15 21 11 17 7 3 12 16
4 5 18 2 16 8 13 22 6 1 15 20 21 17 14 7 0 19 23 11 3
4 9 11 22 19 8 0 12 14
18 15 4
